c description: Random 3-CNF over 15 variables and 65 clauses
c generator: CNFgen (0.9.0)
c copyright: (C) 2012-2020 Massimo Lauria <massimo.lauria@uniroma1.it>
c url: https://massimolauria.net/cnfgen
c
p cnf 15 65
-6 -7 -9 0
-1 -6 12 0
5 9 -12 0
-4 6 13 0
7 12 -14 0
3 -8 9 0
3 -7 9 0
8 -11 13 0
-1 -3 -11 0
7 8 -15 0
1 -11 -12 0
-12 -13 14 0
-4 -7 -10 0
9 11 12 0
2 -12 13 0
-4 -8 15 0
2 4 8 0
-6 -8 -12 0
2 3 -14 0
-4 -8 -13 0
-4 -6 11 0
1 -5 8 0
10 13 -14 0
3 11 -13 0
3 7 9 0
-9 -10 -15 0
4 10 -14 0
-3 12 -15 0
-1 9 12 0
8 -13 -14 0
-3 -13 -15 0
2 -10 -15 0
3 4 -15 0
-1 10 -15 0
-1 6 -14 0
1 7 -13 0
-5 7 14 0
-7 -11 -12 0
4 10 -13 0
7 9 -10 0
1 6 -9 0
11 -13 14 0
-6 -7 -10 0
2 -6 12 0
2 7 12 0
12 14 -15 0
-4 -8 10 0
1 8 10 0
2 10 11 0
8 12 13 0
-11 -14 -15 0
10 -13 14 0
-3 -6 -11 0
-7 -8 -13 0
-1 9 13 0
5 -9 -13 0
2 -4 -12 0
4 -7 -11 0
-2 -9 11 0
-10 -11 -12 0
-4 5 15 0
-2 -3 4 0
2 -3 -4 0
4 -5 11 0
-1 6 -15 0